0 0 0 0
0 1 0 0
0 2 0 0
0 3 2 0
0 4 0 3
0 5 1 5
0 6 0 4
0 7 2 8
0 8 2 8
0 9 2 18
0 10 2 18
0 11 1 6
0 12 2 8
0 13 2 13
0 14 2 16
0 15 2 26
0 16 2 3
0 17 0 23
0 18 0 26
0 19 2 13
0 20 1 16
0 21 2 18
0 22 2 27
0 23 2 27
0 24 2 36
0 25 2 27
0 26 2 26
0 27 2 26
0 28 1 41
0 29 1 33
0 30 1 36
0 31 0 44
